%mem=140GB
%nprocshared=40
# opt freq b3lyp/6-31+g(d,p) scrf=(smd,solvent=THF)

cl(-)...H3C-cl (ts)

-1 1
 O                  4.18131600   -0.58171400   -0.01528600
 H                  4.29982000   -1.53449700    0.10736400

~                                                
