%chk=h2o.chk
# hf/3-21g geom=connectivity

Title Card Required

0 1
 O                  0.74766353   -0.51401868    0.00000000
 H                  1.70766353   -0.51401868    0.00000000
 H                  0.42720895    0.39091715    0.00000000

 1 2 1.0 3 1.0
 2
 3

